c FILE /home/rafael/Documents/HappySet/MIHS/inputs/happygen/output/graph_d_regular_k3_p0.2_v100_20241127_084011.txt
c SOURCE This is a d-regular graph formed for the happy graph colouring problem.
c DESCRIPTION It was generated using the problem generator of Rhyd Lewis
c
c GRAPH STATS
c Seed                             = 1910064598
c Number of Nodes                  = 100
c Number of colours k              = 3
c Number of pre-assignments        = 20
c Degree of all vertices           = 6
c Density                          = 0.0606061
c 
c The degrees of nodes 1 to 100, respectively, are as follows 
c [6, 6, 6, 6, 6, 6, 6, 6, 6, 6, 6, 6, 6, 6, 6, 6, 6, 6, 6, 6, 6, 6, 6, 6, 6, 6, 
c  6, 6, 6, 6, 6, 6, 6, 6, 6, 6, 6, 6, 6, 6, 6, 6, 6, 6, 6, 6, 6, 6, 6, 6, 6, 
c  6, 6, 6, 6, 6, 6, 6, 6, 6, 6, 6, 6, 6, 6, 6, 6, 6, 6, 6, 6, 6, 6, 6, 6, 6, 
c  6, 6, 6, 6, 6, 6, 6, 6, 6, 6, 6, 6, 6, 6, 6, 6, 6, 6, 6, 6, 6, 6, 6, 6] 
c  
p edge 100 300 3
e 1 7
e 1 42
e 1 44
e 1 61
e 1 78
e 1 86
e 2 16
e 2 20
e 2 51
e 2 54
e 2 93
e 2 97
e 3 20
e 3 34
e 3 46
e 3 58
e 3 65
e 3 77
e 4 23
e 4 48
e 4 56
e 4 64
e 4 76
e 4 79
e 5 19
e 5 32
e 5 50
e 5 66
e 5 73
e 5 91
e 6 39
e 6 44
e 6 60
e 6 64
e 6 84
e 6 94
e 7 37
e 7 40
e 7 44
e 7 51
e 7 98
e 8 22
e 8 28
e 8 40
e 8 75
e 8 82
e 8 88
e 9 31
e 9 42
e 9 47
e 9 49
e 9 68
e 9 90
e 10 24
e 10 35
e 10 43
e 10 50
e 10 73
e 10 84
e 11 16
e 11 25
e 11 30
e 11 34
e 11 56
e 11 79
e 12 42
e 12 53
e 12 66
e 12 70
e 12 85
e 12 99
e 13 16
e 13 24
e 13 44
e 13 87
e 13 95
e 13 97
e 14 51
e 14 57
e 14 72
e 14 79
e 14 86
e 14 95
e 15 38
e 15 51
e 15 83
e 15 90
e 15 92
e 15 98
e 16 80
e 16 83
e 16 99
e 17 22
e 17 37
e 17 45
e 17 73
e 17 76
e 17 80
e 18 24
e 18 56
e 18 74
e 18 75
e 18 87
e 18 96
e 19 31
e 19 32
e 19 55
e 19 64
e 19 83
e 20 40
e 20 73
e 20 82
e 20 97
e 21 22
e 21 30
e 21 38
e 21 62
e 21 83
e 21 97
e 22 47
e 22 58
e 22 82
e 23 36
e 23 38
e 23 43
e 23 59
e 23 62
e 24 69
e 24 71
e 24 95
e 25 39
e 25 41
e 25 75
e 25 77
e 25 86
e 26 31
e 26 35
e 26 61
e 26 71
e 26 89
e 26 98
e 27 33
e 27 34
e 27 45
e 27 55
e 27 86
e 27 100
e 28 37
e 28 67
e 28 76
e 28 81
e 28 98
e 29 40
e 29 66
e 29 70
e 29 81
e 29 96
e 29 100
e 30 34
e 30 62
e 30 91
e 30 97
e 31 55
e 31 90
e 31 96
e 32 37
e 32 41
e 32 54
e 32 63
e 33 61
e 33 73
e 33 74
e 33 78
e 33 88
e 34 69
e 34 92
e 35 52
e 35 67
e 35 98
e 35 100
e 36 48
e 36 54
e 36 59
e 36 67
e 36 72
e 37 44
e 37 50
e 38 52
e 38 66
e 38 77
e 39 52
e 39 53
e 39 65
e 39 80
e 40 56
e 40 82
e 41 51
e 41 74
e 41 76
e 41 87
e 42 59
e 42 84
e 42 92
e 43 71
e 43 82
e 43 87
e 43 94
e 44 54
e 45 64
e 45 68
e 45 88
e 45 91
e 46 47
e 46 54
e 46 64
e 46 68
e 46 93
e 47 58
e 47 61
e 47 63
e 48 77
e 48 82
e 48 90
e 48 92
e 49 70
e 49 74
e 49 78
e 49 79
e 49 98
e 50 63
e 50 85
e 50 96
e 51 52
e 52 68
e 52 72
e 53 57
e 53 68
e 53 75
e 53 80
e 54 99
e 55 66
e 55 94
e 55 99
e 56 58
e 56 90
e 57 78
e 57 80
e 57 88
e 57 93
e 58 63
e 58 89
e 59 79
e 59 83
e 59 94
e 60 69
e 60 70
e 60 88
e 60 91
e 60 93
e 61 62
e 61 97
e 62 74
e 62 75
e 63 72
e 63 85
e 64 77
e 65 78
e 65 80
e 65 94
e 65 99
e 66 100
e 67 89
e 67 94
e 67 96
e 68 85
e 69 71
e 69 89
e 69 95
e 70 76
e 70 77
e 71 72
e 71 93
e 72 83
e 73 92
e 74 90
e 75 89
e 76 81
e 78 85
e 79 85
e 81 86
e 81 93
e 81 95
e 84 91
e 84 95
e 84 100
e 86 99
e 87 91
e 87 96
e 88 92
e 89 100
n 9 1
n 13 3
n 19 2
n 21 3
n 24 3
n 26 2
n 27 1
n 35 2
n 37 2
n 45 1
n 48 2
n 49 1
n 53 1
n 63 2
n 77 2
n 84 3
n 85 2
n 95 3
n 96 2
n 99 3
